data;

param num_top:=4;

#nodes and edges of the physical network
param n := 10;

set E := (1,2) (1,3) (1,7) (2,4) (2,7) (3,5) (4,8) (5,6) (5,7) (6,7) (6,9) (7,8) (7,9) (8,10) (9,10) ;

#nodes and edges of the virtual networks
set Nl[1] := 8 3 2 9 6 ;
set Nl[2] := 9 4 6 5 1 ;
set Nl[3] := 8 7 10 1 4 ;
set Nl[4] := 6 1 7 9 10 ;

set El[1] := (3,8) (2,3) (2,9) (6,9) (6,8) (3,9) (8,9) (2,8) (2,6) (3,6) ;
set El[2] := (4,9) (4,6) (5,6) (1,5) (1,9) (1,4) (6,9) (5,9) (1,6) (4,5) ;
set El[3] := (7,8) (7,10) (1,10) (1,4) (4,8) (1,7) (4,7) (8,10) (4,10) (1,8) ;
set El[4] := (1,6) (1,7) (7,9) (9,10) (6,10) (1,10) (1,9) (6,9) (7,10) (6,7) ;
